n_machines = 3;
n_resources = 4;
n_jobs = 39;
horizon = 192;
LB = 71;
n_jobs_per_resource = [7, 15, 8, 9];
duration = [8, 8, 1, 6, 1, 5, 7, 6, 6, 8, 4, 8, 4, 1, 1, 3, 5, 8, 5, 7, 4, 1, 2, 7, 8, 6, 1, 4, 9, 1, 3, 1, 9, 6, 8, 2, 2, 9, 7]